p cnf 39 58                 
2 19 0
1 19 0
-2 -1 -19 0
19 -21 0
-1 20 0
-2 20 0
1 2 -20 0
20 -21 0
-19 -20 21 0
-21 1 -22 0
21 5 -22 0
1 5 -22 0
22 24 0
-3 24 0
-21 2 -23 0
21 6 -23 0
2 6 -23 0
23 25 0
-4 25 0
-24 -25 26 0
-26 -27 0
-4 -3 -7 0
7 -9 0
3 4 -8 0
8 -9 0
9 -27 0
-6 -5 -10 0
10 -12 0
5 6 -11 0
11 -12 0
12 -27 0
-3 1 -13 0
13 -15 0
-4 2 -14 0
14 -15 0
15 -27 0
-1 3 -16 0
16 -18 0
-2 4 -17 0
17 -18 0
18 -27 0
-1 2 -28 0
28 -38 0
-1 -2 29 0
1 2 29 0
-2 2 29 0
-3 4 -30 0
-29 30 -31 0
31 -38 0
-3 -4 32 0
3 4 32 0
-4 4 32 0
-29 -32 33 0
-5 6 -34 0
-33 34 -35 0
35 -38 0
27 0
38 0
